(set-info :original "03-prusti/prusti-6-pass-demos-account-error.bc")
(set-info :authors "SeaHorn v.10.0.0-rc0")
(declare-rel verifier.error (Bool Bool Bool ))
(declare-rel main@entry (Int ))
(declare-rel main@entry.split ())
(declare-var main@%_0_0 Int )
(declare-var @nd_0 Int )
(declare-var main@%_1_0 Int )
(declare-var main@%_2_0 Int )
(declare-var main@%_4_0 Int )
(declare-var main@%_5_0 Int )
(declare-var main@%_6_0 Int )
(declare-var main@%_7_0 Int )
(declare-var main@%_8_0 Bool )
(declare-var main@entry_0 Bool )
(declare-var main@entry.split_0 Bool )
(rule (verifier.error false false false))
(rule (verifier.error false true true))
(rule (verifier.error true false true))
(rule (verifier.error true true true))
(rule (main@entry @nd_0))
(rule (=> (and (main@entry @nd_0)
         true
         (= main@%_0_0 @nd_0)
         (= main@%_2_0 @nd_0)
         (= main@%_4_0 @nd_0)
         (= main@%_6_0 (- main@%_1_0 main@%_5_0))
         (= main@%_7_0 (+ main@%_5_0 main@%_1_0))
         (= main@%_8_0 (= main@%_6_0 main@%_7_0))
         (not main@%_8_0)
         (=> main@entry.split_0 (and main@entry.split_0 main@entry_0))
         main@entry.split_0)
    main@entry.split))
(query main@entry.split)

